
-15.58
-15.26
-14.82
-13.8
-12.2
-10.6
-9.24
-7.74
-6.42
-5.7
-5.02
-4.36
-3.94
-3.62
-3.38
-3.16
-3.08
-2.94
-2.92
-2.9
-2.88
-2.86
-2.86
-2.86
-2.86
-2.84
-2.82
-2.8
-2.78
-2.78
-2.78
-2.78
-2.78
-2.78
-2.78
-2.78
-2.78
-2.78